<?xml version = "1.0" encoding="UTF-8" standalone="yes"?>
<CPLEXSolution version="1.2">
 <header
   problemName=""
   solutionName="incumbent"
   solutionIndex="-1"
   objectiveValue="51.408365611151183"
   solutionTypeValue="3"
   solutionTypeString="primal"
   solutionStatusValue="101"
   solutionStatusString="integer optimal solution"
   solutionMethodString="mip"
   primalFeasible="1"
   dualFeasible="1"
   MIPNodes="0"
   MIPIterations="296"
   writeLevel="1"/>
 <quality
   epInt="1.0000000000000001e-05"
   epRHS="9.9999999999999995e-07"
   maxIntInfeas="4.4408920985006262e-16"
   maxPrimalInfeas="3.5527136788005009e-15"
   maxX="9"
   maxSlack="7.9999999999999982"/>
 <linearConstraints>
  <constraint index="0" slack="0"/>
  <constraint index="1" slack="0"/>
  <constraint index="2" slack="0"/>
  <constraint index="3" slack="0"/>
  <constraint index="4" slack="0"/>
  <constraint index="5" slack="0"/>
  <constraint index="6" slack="0"/>
  <constraint index="7" slack="0"/>
  <constraint index="8" slack="0"/>
  <constraint index="9" slack="-3.5527136788005009e-15"/>
  <constraint index="10" slack="2.2204460492503131e-15"/>
  <constraint index="11" slack="0"/>
  <constraint index="12" slack="0"/>
  <constraint index="13" slack="0"/>
  <constraint index="14" slack="0"/>
  <constraint index="15" slack="1.3322676295501878e-15"/>
  <constraint index="16" slack="0"/>
  <constraint index="17" slack="0"/>
  <constraint index="18" slack="-1.7763568394002505e-15"/>
  <constraint index="19" slack="0"/>
  <constraint index="20" slack="0"/>
  <constraint index="21" slack="4.4408920985006262e-16"/>
  <constraint index="22" slack="4.4408920985006262e-16"/>
  <constraint index="23" slack="0"/>
  <constraint index="24" slack="0"/>
  <constraint index="25" slack="4.4408920985006262e-16"/>
  <constraint index="26" slack="0"/>
  <constraint index="27" slack="4.4408920985006262e-16"/>
  <constraint index="28" slack="0"/>
  <constraint index="29" slack="0"/>
  <constraint index="30" slack="0"/>
  <constraint index="31" slack="0"/>
  <constraint index="32" slack="0"/>
  <constraint index="33" slack="0"/>
  <constraint index="34" slack="0"/>
  <constraint index="35" slack="0"/>
  <constraint index="36" slack="0"/>
  <constraint index="37" slack="0"/>
  <constraint index="38" slack="0"/>
  <constraint index="39" slack="3.9968028886505635e-15"/>
  <constraint index="40" slack="0"/>
  <constraint index="41" slack="3.9968028886505635e-15"/>
  <constraint index="42" slack="0"/>
  <constraint index="43" slack="3.9968028886505635e-15"/>
  <constraint index="44" slack="0"/>
  <constraint index="45" slack="0"/>
  <constraint index="46" slack="3.9968028886505635e-15"/>
  <constraint index="47" slack="0"/>
  <constraint index="48" slack="0"/>
  <constraint index="49" slack="3.0000000000000036"/>
  <constraint index="50" slack="0"/>
  <constraint index="51" slack="0"/>
  <constraint index="52" slack="0"/>
  <constraint index="53" slack="0"/>
  <constraint index="54" slack="0"/>
  <constraint index="55" slack="0"/>
  <constraint index="56" slack="0"/>
  <constraint index="57" slack="0"/>
  <constraint index="58" slack="0"/>
  <constraint index="59" slack="0"/>
  <constraint index="60" slack="0"/>
  <constraint index="61" slack="0"/>
  <constraint index="62" slack="0"/>
  <constraint index="63" slack="0"/>
  <constraint index="64" slack="0"/>
  <constraint index="65" slack="0"/>
  <constraint index="66" slack="0"/>
  <constraint index="67" slack="0"/>
  <constraint index="68" slack="0"/>
  <constraint index="69" slack="0"/>
  <constraint index="70" slack="0"/>
  <constraint index="71" slack="0"/>
  <constraint index="72" slack="0"/>
  <constraint index="73" slack="4"/>
  <constraint index="74" slack="0"/>
  <constraint index="75" slack="0"/>
  <constraint index="76" slack="0"/>
  <constraint index="77" slack="0"/>
  <constraint index="78" slack="0"/>
  <constraint index="79" slack="6"/>
  <constraint index="80" slack="0"/>
  <constraint index="81" slack="0"/>
  <constraint index="82" slack="0"/>
  <constraint index="83" slack="0"/>
  <constraint index="84" slack="0"/>
  <constraint index="85" slack="0"/>
  <constraint index="86" slack="0"/>
  <constraint index="87" slack="0"/>
  <constraint index="88" slack="0"/>
  <constraint index="89" slack="0"/>
  <constraint index="90" slack="1"/>
  <constraint index="91" slack="0"/>
  <constraint index="92" slack="0"/>
  <constraint index="93" slack="0"/>
  <constraint index="94" slack="0"/>
  <constraint index="95" slack="0"/>
  <constraint index="96" slack="0"/>
  <constraint index="97" slack="0"/>
  <constraint index="98" slack="7.0000000000000036"/>
  <constraint index="99" slack="0"/>
  <constraint index="100" slack="0"/>
  <constraint index="101" slack="0"/>
  <constraint index="102" slack="7.9999999999999982"/>
  <constraint index="103" slack="0"/>
  <constraint index="104" slack="0"/>
  <constraint index="105" slack="0"/>
  <constraint index="106" slack="0"/>
  <constraint index="107" slack="0"/>
  <constraint index="108" slack="0"/>
  <constraint index="109" slack="0"/>
  <constraint index="110" slack="2"/>
  <constraint index="111" slack="0"/>
  <constraint index="112" slack="0"/>
  <constraint index="113" slack="0"/>
  <constraint index="114" slack="0"/>
  <constraint index="115" slack="0"/>
  <constraint index="116" slack="0"/>
  <constraint index="117" slack="0"/>
  <constraint index="118" slack="0"/>
  <constraint index="119" slack="0"/>
  <constraint index="120" slack="0"/>
  <constraint index="121" slack="0"/>
  <constraint index="122" slack="5"/>
  <constraint index="123" slack="0"/>
  <constraint index="124" slack="0"/>
  <constraint index="125" slack="0"/>
  <constraint index="126" slack="0"/>
  <constraint index="127" slack="0"/>
 </linearConstraints>
 <variables>
  <variable name="x_0_1" index="0" value="0"/>
  <variable name="x_0_2" index="1" value="0"/>
  <variable name="x_0_3" index="2" value="0"/>
  <variable name="x_0_4" index="3" value="0"/>
  <variable name="x_0_5" index="4" value="9"/>
  <variable name="x_0_6" index="5" value="0"/>
  <variable name="x_0_7" index="6" value="0"/>
  <variable name="x_0_8" index="7" value="0"/>
  <variable name="x_0_9" index="8" value="0"/>
  <variable name="x_1_1" index="9" value="0"/>
  <variable name="x_1_2" index="10" value="0"/>
  <variable name="x_1_3" index="11" value="5.9999999999999964"/>
  <variable name="x_1_4" index="12" value="0"/>
  <variable name="x_1_5" index="13" value="0"/>
  <variable name="x_1_6" index="14" value="0"/>
  <variable name="x_1_7" index="15" value="0"/>
  <variable name="x_1_8" index="16" value="0"/>
  <variable name="x_1_9" index="17" value="0"/>
  <variable name="x_2_1" index="18" value="0"/>
  <variable name="x_2_2" index="19" value="0"/>
  <variable name="x_2_3" index="20" value="0"/>
  <variable name="x_2_4" index="21" value="0"/>
  <variable name="x_2_5" index="22" value="0"/>
  <variable name="x_2_6" index="23" value="0"/>
  <variable name="x_2_7" index="24" value="0"/>
  <variable name="x_2_8" index="25" value="0"/>
  <variable name="x_2_9" index="26" value="0"/>
  <variable name="x_3_1" index="27" value="0"/>
  <variable name="x_3_2" index="28" value="0"/>
  <variable name="x_3_3" index="29" value="0"/>
  <variable name="x_3_4" index="30" value="0"/>
  <variable name="x_3_5" index="31" value="0"/>
  <variable name="x_3_6" index="32" value="0"/>
  <variable name="x_3_7" index="33" value="0"/>
  <variable name="x_3_8" index="34" value="0"/>
  <variable name="x_3_9" index="35" value="4.9999999999999964"/>
  <variable name="x_4_1" index="36" value="0"/>
  <variable name="x_4_2" index="37" value="0"/>
  <variable name="x_4_3" index="38" value="0"/>
  <variable name="x_4_4" index="39" value="0"/>
  <variable name="x_4_5" index="40" value="0"/>
  <variable name="x_4_6" index="41" value="2.9999999999999964"/>
  <variable name="x_4_7" index="42" value="0"/>
  <variable name="x_4_8" index="43" value="0"/>
  <variable name="x_4_9" index="44" value="0"/>
  <variable name="x_5_1" index="45" value="0"/>
  <variable name="x_5_2" index="46" value="0"/>
  <variable name="x_5_3" index="47" value="0"/>
  <variable name="x_5_4" index="48" value="0"/>
  <variable name="x_5_5" index="49" value="0"/>
  <variable name="x_5_6" index="50" value="0"/>
  <variable name="x_5_7" index="51" value="0"/>
  <variable name="x_5_8" index="52" value="8"/>
  <variable name="x_5_9" index="53" value="0"/>
  <variable name="x_6_1" index="54" value="0"/>
  <variable name="x_6_2" index="55" value="0"/>
  <variable name="x_6_3" index="56" value="0"/>
  <variable name="x_6_4" index="57" value="0"/>
  <variable name="x_6_5" index="58" value="0"/>
  <variable name="x_6_6" index="59" value="0"/>
  <variable name="x_6_7" index="60" value="1.9999999999999964"/>
  <variable name="x_6_8" index="61" value="0"/>
  <variable name="x_6_9" index="62" value="0"/>
  <variable name="x_7_1" index="63" value="0"/>
  <variable name="x_7_2" index="64" value="0.99999999999999778"/>
  <variable name="x_7_3" index="65" value="0"/>
  <variable name="x_7_4" index="66" value="0"/>
  <variable name="x_7_5" index="67" value="0"/>
  <variable name="x_7_6" index="68" value="0"/>
  <variable name="x_7_7" index="69" value="0"/>
  <variable name="x_7_8" index="70" value="0"/>
  <variable name="x_7_9" index="71" value="0"/>
  <variable name="x_8_1" index="72" value="7"/>
  <variable name="x_8_2" index="73" value="0"/>
  <variable name="x_8_3" index="74" value="0"/>
  <variable name="x_8_4" index="75" value="0"/>
  <variable name="x_8_5" index="76" value="0"/>
  <variable name="x_8_6" index="77" value="0"/>
  <variable name="x_8_7" index="78" value="0"/>
  <variable name="x_8_8" index="79" value="0"/>
  <variable name="x_8_9" index="80" value="0"/>
  <variable name="x_9_1" index="81" value="0"/>
  <variable name="x_9_2" index="82" value="0"/>
  <variable name="x_9_3" index="83" value="0"/>
  <variable name="x_9_4" index="84" value="3.9999999999999964"/>
  <variable name="x_9_5" index="85" value="0"/>
  <variable name="x_9_6" index="86" value="0"/>
  <variable name="x_9_7" index="87" value="0"/>
  <variable name="x_9_8" index="88" value="0"/>
  <variable name="x_9_9" index="89" value="0"/>
  <variable name="y_0_0" index="90" value="0"/>
  <variable name="y_0_1" index="91" value="0"/>
  <variable name="y_0_2" index="92" value="4.4408920985006262e-16"/>
  <variable name="y_0_3" index="93" value="0"/>
  <variable name="y_0_4" index="94" value="4.4408920985006262e-16"/>
  <variable name="y_0_5" index="95" value="1"/>
  <variable name="y_0_6" index="96" value="4.4408920985006262e-16"/>
  <variable name="y_0_7" index="97" value="0"/>
  <variable name="y_0_8" index="98" value="0"/>
  <variable name="y_0_9" index="99" value="4.4408920985006262e-16"/>
  <variable name="y_1_0" index="100" value="-0"/>
  <variable name="y_1_1" index="101" value="0"/>
  <variable name="y_1_2" index="102" value="-0"/>
  <variable name="y_1_3" index="103" value="1"/>
  <variable name="y_1_4" index="104" value="-0"/>
  <variable name="y_1_5" index="105" value="-0"/>
  <variable name="y_1_6" index="106" value="-0"/>
  <variable name="y_1_7" index="107" value="-0"/>
  <variable name="y_1_8" index="108" value="0"/>
  <variable name="y_1_9" index="109" value="-0"/>
  <variable name="y_2_0" index="110" value="1"/>
  <variable name="y_2_1" index="111" value="-0"/>
  <variable name="y_2_2" index="112" value="0"/>
  <variable name="y_2_3" index="113" value="0"/>
  <variable name="y_2_4" index="114" value="0"/>
  <variable name="y_2_5" index="115" value="-0"/>
  <variable name="y_2_6" index="116" value="-0"/>
  <variable name="y_2_7" index="117" value="0"/>
  <variable name="y_2_8" index="118" value="-0"/>
  <variable name="y_2_9" index="119" value="-0"/>
  <variable name="y_3_0" index="120" value="-0"/>
  <variable name="y_3_1" index="121" value="0"/>
  <variable name="y_3_2" index="122" value="-0"/>
  <variable name="y_3_3" index="123" value="0"/>
  <variable name="y_3_4" index="124" value="-0"/>
  <variable name="y_3_5" index="125" value="-0"/>
  <variable name="y_3_6" index="126" value="-0"/>
  <variable name="y_3_7" index="127" value="-0"/>
  <variable name="y_3_8" index="128" value="-0"/>
  <variable name="y_3_9" index="129" value="0.99999999999999956"/>
  <variable name="y_4_0" index="130" value="-0"/>
  <variable name="y_4_1" index="131" value="-0"/>
  <variable name="y_4_2" index="132" value="-0"/>
  <variable name="y_4_3" index="133" value="-0"/>
  <variable name="y_4_4" index="134" value="0"/>
  <variable name="y_4_5" index="135" value="-0"/>
  <variable name="y_4_6" index="136" value="0.99999999999999956"/>
  <variable name="y_4_7" index="137" value="-0"/>
  <variable name="y_4_8" index="138" value="-0"/>
  <variable name="y_4_9" index="139" value="0"/>
  <variable name="y_5_0" index="140" value="0"/>
  <variable name="y_5_1" index="141" value="-0"/>
  <variable name="y_5_2" index="142" value="-0"/>
  <variable name="y_5_3" index="143" value="-0"/>
  <variable name="y_5_4" index="144" value="-0"/>
  <variable name="y_5_5" index="145" value="0"/>
  <variable name="y_5_6" index="146" value="-0"/>
  <variable name="y_5_7" index="147" value="-0"/>
  <variable name="y_5_8" index="148" value="1"/>
  <variable name="y_5_9" index="149" value="-0"/>
  <variable name="y_6_0" index="150" value="-0"/>
  <variable name="y_6_1" index="151" value="0"/>
  <variable name="y_6_2" index="152" value="-0"/>
  <variable name="y_6_3" index="153" value="-0"/>
  <variable name="y_6_4" index="154" value="0"/>
  <variable name="y_6_5" index="155" value="-0"/>
  <variable name="y_6_6" index="156" value="0"/>
  <variable name="y_6_7" index="157" value="1"/>
  <variable name="y_6_8" index="158" value="-0"/>
  <variable name="y_6_9" index="159" value="0"/>
  <variable name="y_7_0" index="160" value="-0"/>
  <variable name="y_7_1" index="161" value="-0"/>
  <variable name="y_7_2" index="162" value="0.99999999999999956"/>
  <variable name="y_7_3" index="163" value="-0"/>
  <variable name="y_7_4" index="164" value="-0"/>
  <variable name="y_7_5" index="165" value="-0"/>
  <variable name="y_7_6" index="166" value="0"/>
  <variable name="y_7_7" index="167" value="0"/>
  <variable name="y_7_8" index="168" value="-0"/>
  <variable name="y_7_9" index="169" value="-0"/>
  <variable name="y_8_0" index="170" value="-0"/>
  <variable name="y_8_1" index="171" value="1"/>
  <variable name="y_8_2" index="172" value="-0"/>
  <variable name="y_8_3" index="173" value="-0"/>
  <variable name="y_8_4" index="174" value="-0"/>
  <variable name="y_8_5" index="175" value="0"/>
  <variable name="y_8_6" index="176" value="-0"/>
  <variable name="y_8_7" index="177" value="-0"/>
  <variable name="y_8_8" index="178" value="0"/>
  <variable name="y_8_9" index="179" value="-0"/>
  <variable name="y_9_0" index="180" value="-0"/>
  <variable name="y_9_1" index="181" value="-0"/>
  <variable name="y_9_2" index="182" value="0"/>
  <variable name="y_9_3" index="183" value="0"/>
  <variable name="y_9_4" index="184" value="0.99999999999999956"/>
  <variable name="y_9_5" index="185" value="-0"/>
  <variable name="y_9_6" index="186" value="-0"/>
  <variable name="y_9_7" index="187" value="0"/>
  <variable name="y_9_8" index="188" value="-0"/>
  <variable name="y_9_9" index="189" value="0"/>
 </variables>
</CPLEXSolution>
